
Gurobi 8.1.1 (win64) logging started 11/24/19 13:00:02

Changed value of parameter LogFile to logs/full/ip/full-06-30-1.log
   Prev: gurobi.log  Default: 
Changed value of parameter LogToConsole to 0
   Prev: 1  Min: 0  Max: 1  Default: 1
Changed value of parameter TimeLimit to 3600.0
   Prev: 1e+100  Min: 0.0  Max: 1e+100  Default: 1e+100
Optimize a model with 3870 rows, 1832 columns and 14790 nonzeros
Variable types: 0 continuous, 1832 integer (1816 binary)
Coefficient statistics:
  Matrix range     [1e+00, 5e+02]
  Objective range  [1e+00, 1e+00]
  Bounds range     [1e+00, 1e+00]
  RHS range        [1e+00, 6e+02]
Presolve removed 3 rows and 3 columns
Presolve time: 0.09s
Presolved: 3867 rows, 1829 columns, 14781 nonzeros
Variable types: 0 continuous, 1829 integer (1813 binary)

Root relaxation: objective 4.333333e+00, 1073 iterations, 0.06 seconds

    Nodes    |    Current Node    |     Objective Bounds      |     Work
 Expl Unexpl |  Obj  Depth IntInf | Incumbent    BestBd   Gap | It/Node Time

     0     0    4.33333    0  151          -    4.33333      -     -    0s
H    0     0                      16.0000000    4.33333  72.9%     -    0s
H    0     0                      15.0000000    4.33333  71.1%     -    0s
     0     0    6.00000    0   27   15.00000    6.00000  60.0%     -    0s
     0     0    6.00000    0   19   15.00000    6.00000  60.0%     -    1s
H    0     0                      14.0000000    6.00000  57.1%     -    1s
     0     0    6.00000    0   75   14.00000    6.00000  57.1%     -    1s
     0     0    6.00000    0   75   14.00000    6.00000  57.1%     -    1s
     0     0    6.00000    0   22   14.00000    6.00000  57.1%     -    1s
H    0     0                      10.0000000    6.00000  40.0%     -    1s
     0     0    6.00000    0   22   10.00000    6.00000  40.0%     -    1s
     0     0    6.00000    0   11   10.00000    6.00000  40.0%     -    1s
     0     0    6.00000    0   17   10.00000    6.00000  40.0%     -    1s
     0     0    6.00000    0   30   10.00000    6.00000  40.0%     -    1s
     0     0    6.00000    0   30   10.00000    6.00000  40.0%     -    1s
H    0     0                       6.0000000    6.00000  0.00%     -    1s
     0     0    6.00000    0   28    6.00000    6.00000  0.00%     -    1s

Cutting planes:
  Gomory: 5
  MIR: 10
  Zero half: 1

Explored 1 nodes (10773 simplex iterations) in 1.82 seconds
Thread count was 4 (of 4 available processors)

Solution count 5: 6 10 14 ... 16

Optimal solution found (tolerance 1.00e-04)
Best objective 6.000000000000e+00, best bound 6.000000000000e+00, gap 0.0000%
